c ind 194 193 192 191 190 189 188 187 186 185 184 183 182 181 180 179 178 177 176 175 174 173 172 171 170 169 168 167 166 165 164 163  0
c ind 131 130 129 128 127 126 125 124 123 122 121 120 119 118 117 116 115 114 113 112 111 110 109 108 107 106 105 104 103 102 101 100  0
c ind 33 32 31 30 29 28 27 26 25 24 23 22 21 20 19 18 17 16 15 14 13 12 11 10 9 8 7 6 5 4 3 2  0
p cnf 225 341
1 0
-64 0
82 0
-100 0
-101 0
-102 0
-103 0
-104 0
-105 0
-106 0
-107 0
-108 0
-109 0
-110 0
-111 0
-112 0
-113 0
-114 0
-115 0
-116 0
-117 0
-118 0
-119 0
-120 0
-121 0
-122 0
-123 0
-124 0
-125 0
-126 0
-127 0
-128 0
-129 0
-130 0
-131 0
132 0
133 0
134 0
135 0
136 0
137 0
138 0
139 0
140 0
141 0
142 0
143 0
144 0
145 0
146 0
147 0
148 0
149 0
150 0
151 0
152 0
153 0
154 0
155 0
156 0
157 0
158 0
159 0
160 0
161 0
162 0
-163 0
-164 0
-165 0
-166 0
-167 0
-168 0
-169 0
-170 0
-171 0
-172 0
-173 0
-174 0
-175 0
-176 0
-177 0
-178 0
-179 0
-180 0
-181 0
-182 0
-183 0
-184 0
-185 0
-186 0
-187 0
-188 0
-189 0
-190 0
-191 0
-192 0
-193 0
-194 0
195 0
196 0
197 0
198 0
199 0
200 0
201 0
202 0
203 0
204 0
205 0
206 0
207 0
208 0
209 0
210 0
211 0
212 0
213 0
214 0
215 0
216 0
217 0
218 0
219 0
220 0
221 0
222 0
223 0
224 0
225 0
-2 -34 0
-2 -81 0
2 81 0
2 3 34 0
-3 -34 0
-3 -81 0
-3 -83 -80 0
-3 83 80 0
3 -80 81 0
3 -83 80 0
3 83 -80 0
-4 -35 0
-4 -80 0
-4 -84 -79 0
-4 84 79 0
4 -34 35 0
4 -79 80 0
4 -84 79 0
4 84 -79 0
-5 -36 0
-5 -79 0
-5 -85 -78 0
-5 85 78 0
5 -35 36 0
5 -78 79 0
5 -85 78 0
5 85 -78 0
-6 -37 0
-6 -78 0
-6 -86 -77 0
-6 86 77 0
6 -36 37 0
6 -77 78 0
6 -86 77 0
6 86 -77 0
-7 -38 0
-7 -77 0
-7 -87 -76 0
-7 87 76 0
7 -37 38 0
7 -76 77 0
7 -87 76 0
7 87 -76 0
-8 -39 0
-8 -76 0
-8 -88 -75 0
-8 88 75 0
8 -38 39 0
8 -75 76 0
8 -88 75 0
8 88 -75 0
-9 -40 0
-9 -75 0
-9 -89 -74 0
-9 89 74 0
9 -39 40 0
9 -74 75 0
9 -89 74 0
9 89 -74 0
-10 -41 0
-10 -74 0
-10 -90 -73 0
-10 90 73 0
10 -40 41 0
10 -73 74 0
10 -90 73 0
10 90 -73 0
-11 -42 0
-11 -73 0
-11 -91 -72 0
-11 91 72 0
11 -41 42 0
11 -72 73 0
11 -91 72 0
11 91 -72 0
-12 -43 0
-12 -72 0
-12 -92 -71 0
-12 92 71 0
12 -42 43 0
12 -71 72 0
12 -92 71 0
12 92 -71 0
-13 -44 0
-13 -71 0
-13 -93 -70 0
-13 93 70 0
13 -43 44 0
13 -70 71 0
13 -93 70 0
13 93 -70 0
-14 -45 0
-14 -70 0
-14 -94 -69 0
-14 94 69 0
14 -44 45 0
14 -69 70 0
14 -94 69 0
14 94 -69 0
-15 -46 0
-15 -69 0
-15 -95 -68 0
-15 95 68 0
15 -45 46 0
15 -68 69 0
15 -95 68 0
15 95 -68 0
-16 -47 0
-16 -68 0
-16 -96 -67 0
-16 96 67 0
16 -46 47 0
16 -67 68 0
16 -96 67 0
16 96 -67 0
-17 -48 0
-17 -67 0
-17 -97 -66 0
-17 97 66 0
17 -47 48 0
17 -66 67 0
17 -97 66 0
17 97 -66 0
-18 -49 0
-18 -66 0
-18 -98 -65 0
-18 98 65 0
18 -48 49 0
18 -65 66 0
18 -98 65 0
18 98 -65 0
-19 -50 0
-19 -65 0
-19 -99 20 0
-19 99 -20 0
19 -49 50 0
19 20 65 0
19 -99 -20 0
19 99 20 0
-20 -51 0
-20 -65 0
20 -50 51 0
-21 -52 0
21 -51 52 0
-22 -53 0
22 -52 53 0
-23 -54 0
23 -53 54 0
-24 -55 0
24 -54 55 0
-25 -56 0
25 -55 56 0
-26 -57 0
26 -56 57 0
-27 -58 0
27 -57 58 0
-28 -59 0
28 -58 59 0
-29 -60 0
29 -59 60 0
-30 -61 0
30 -60 61 0
-31 -62 0
31 -61 62 0
-32 -63 0
32 -62 63 0
33 -63 0
34 -35 0
35 -36 0
36 -37 0
37 -38 0
38 -39 0
39 -40 0
40 -41 0
41 -42 0
42 -43 0
43 -44 0
44 -45 0
45 -46 0
46 -47 0
47 -48 0
48 -49 0
49 -50 0
50 -51 0
51 -52 0
52 -53 0
53 -54 0
54 -55 0
55 -56 0
56 -57 0
57 -58 0
58 -59 0
59 -60 0
60 -61 0
61 -62 0
62 -63 0
65 -66 0
66 -67 0
67 -68 0
68 -69 0
69 -70 0
70 -71 0
71 -72 0
72 -73 0
73 -74 0
74 -75 0
75 -76 0
76 -77 0
77 -78 0
78 -79 0
79 -80 0
80 -81 0
